unsat
(define-fun skel ((i_7 Bool) (i_9 Bool) (i_6 Bool) (i_5 Bool)) Bool (or (not (or i_7 i_9)) (and i_7 (and i_6 (or i_9 i_5)))))
5.09user 0.01system 0:05.10elapsed 99%CPU (0avgtext+0avgdata 37600maxresident)k
0inputs+8outputs (0major+4109minor)pagefaults 0swaps
